solution status: optimal solution found
objective value:                                   20
x46                                                 1 	(obj:1)
x50                                                 1 	(obj:1)
x56                                                 1 	(obj:1)
x58                                                 1 	(obj:1)
x59                                                 1 	(obj:1)
x60                                                 1 	(obj:1)
x66                                                 1 	(obj:1)
x69                                                 1 	(obj:1)
x72                                                 1 	(obj:1)
x74                                                 1 	(obj:1)
x80                                                 1 	(obj:1)
x81                                                 1 	(obj:1)
x91                                                 1 	(obj:1)
x94                                                 1 	(obj:1)
x95                                                 1 	(obj:1)
x96                                                 1 	(obj:1)
x99                                                 1 	(obj:1)
x101                                                1 	(obj:1)
x102                                                1 	(obj:1)
x103                                                1 	(obj:1)
$_18__3_y                                          -1 	(obj:0)
$_18__3_z                                          22 	(obj:0)
one.thingy.devices[1].thingy.v12_y                   23 	(obj:0)
one.thingy.devices[1].thingy.v12_z                   25 	(obj:0)
one.ctrl_s[0].hole_y                               21 	(obj:0)
one.ctrl_s[0].hole_z                               21 	(obj:0)
$_24__3_y                                          23 	(obj:0)
$_24__3_z                                          19 	(obj:0)
$_20__3_y                                          -1 	(obj:0)
$_20__3_z                                          21 	(obj:0)
$_23__3_y                                           5 	(obj:0)
$_23__3_z                                          21 	(obj:0)
one.thingy.devices[0].thingy.v12_y                   24 	(obj:0)
one.thingy.devices[0].thingy.v12_z                   23 	(obj:0)
one.thingy.devices[3].thingy.v12_y                   23 	(obj:0)
one.thingy.devices[3].thingy.v12_z                   22 	(obj:0)
one.thingy.devices[1].thingy.v0_y                   22 	(obj:0)
one.thingy.devices[1].thingy.v0_z                   22 	(obj:0)
one.thingy.devices[2].thingy.v0_y                   23 	(obj:0)
one.thingy.devices[2].thingy.v0_z                   24 	(obj:0)
one.thingy.devices[2].thingy.v12_y                   23 	(obj:0)
one.thingy.devices[2].thingy.v12_z                   23 	(obj:0)
$_25__3_y                                           5 	(obj:0)
$_25__3_z                                          20 	(obj:0)
$_21__3_y                                          -1 	(obj:0)
$_21__3_z                                          24 	(obj:0)
one.thingy.devices[0].thingy.v0_y                   24 	(obj:0)
one.thingy.devices[0].thingy.v0_z                   24 	(obj:0)
one.ctrl_s[0].flush_y                              21 	(obj:0)
one.ctrl_s[0].flush_z                              20 	(obj:0)
$_22__3_y                                           6 	(obj:0)
$_22__3_z                                          22 	(obj:0)
$_19__3_y                                         -22 	(obj:0)
$_19__3_z                                          22 	(obj:0)
one.thingy.devices[3].thingy.v0_y                   22 	(obj:0)
one.thingy.devices[3].thingy.v0_z                   23 	(obj:0)
